NAME : single
TYPE : ATSP
DIMENSION : 8
EDGE_WEIGHT_TYPE : EXPLICIT
EDGE_WEIGHT_FORMAT : FULL_MATRIX
EDGE_WEIGHT_SECTION
0 201 181 384 265 246 288 294 
0 0 105 159 73 285 193 176 
0 105 0 97 137 180 298 282 
0 159 97 0 191 126 247 264 
0 73 137 191 0 281 160 144 
0 285 180 126 281 0 120 137 
0 193 298 247 160 120 0 57 
0 176 282 264 144 137 57 0 
EOF